(define-fun Init
    ((state432 Bool) (state416 Bool) (state363 Bool) (state340 Bool) (state284 Bool) (state279 Bool) (witness_0 Bool) (state386 Bool) (state187 Bool) (state156 Bool) (state294 Bool) (state37 Bool) (state41 Bool) (state202 Bool) (state49 Bool) (state64 Bool) (state39 Bool) (state86 Bool) (state401 Bool) (state72 Bool) (state171 Bool) (state94 Bool) (state317 Bool) (state154 Bool) (state141 Bool) (state115 Bool) (state107 Bool) (state133 Bool) (input35 Bool) (input34 Bool) (input33 Bool) (input32 Bool) (input31 Bool) (input14 Bool) (input13 Bool) (input12 Bool) (input11 Bool) (input10 Bool) (input9 Bool) (input8 Bool) (input7 Bool) (input6 Bool) (input5 Bool) (input4 Bool) (input3 Bool) (input2 Bool) (input15 Bool) (input16 Bool) (input17 Bool) (input18 Bool) (input19 Bool) (input20 Bool) (input21 Bool) (input22 Bool) (input23 Bool) (input24 Bool) (input25 Bool) (input26 Bool) (input27 Bool) (input28 Bool) (input29 Bool) (input30 Bool))
     Bool
     (let ((.def_90 (bvnot state41))) (let ((.def_93 (bvand (bvnot (bvand state39 state41)) (bvnot (bvand input12 .def_90))))) (let ((.def_103 (bvand (bvnot (bvand state41 state49)) (bvnot (bvand input6 .def_90))))) (let ((.def_121 (bvand (bvnot (bvand state41 state64)) (bvnot (bvand input13 .def_90))))) (let ((.def_129 (bvor (bvand state41 state72) (bvand input7 .def_90)))) (let ((.def_147 (bvand (bvnot (bvand state41 state86)) (bvnot (bvand input14 .def_90))))) (let ((.def_155 (bvor (bvand state41 state94) (bvand input8 .def_90)))) (let ((.def_172 (bvand (bvnot (bvand state41 state107)) (bvnot (bvand input15 .def_90))))) (let ((.def_180 (bvor (bvand state41 state115) (bvand input9 .def_90)))) (and (and (and (and (and (and (and (and (and (and (and (and (and (and (and (and (and (and (and (and (and (and (and (and (and (and (and (and (and (and (= state37 (_ bv0 1)) (= state39 (_ bv0 1))) (= state41 (_ bv0 1))) (= state49 (_ bv0 1))) (= state64 (_ bv0 1))) (= state72 (_ bv0 1))) (= state86 (_ bv0 1))) (= state94 (_ bv0 1))) (= state107 (_ bv0 1))) (= state115 (_ bv0 1))) (= state133 (_ bv0 1))) (= state141 (_ bv0 1))) (= state154 (_ bv0 1))) (= state156 (_ bv0 1))) (= state171 (_ bv0 1))) (= state187 (_ bv0 1))) (= state202 (_ bv0 1))) (= (bvand state37 (bvnot (bvand (bvand (bvand (bvnot (bvand .def_93 (bvnot .def_103))) (bvnot (bvand .def_103 (bvnot .def_93)))) (bvand (bvnot (bvand .def_121 .def_129)) (bvnot (bvand (bvnot .def_121) (bvnot .def_129))))) (bvand (bvand (bvnot (bvand .def_147 .def_155)) (bvnot (bvand (bvnot .def_147) (bvnot .def_155)))) (bvand (bvnot (bvand .def_172 .def_180)) (bvnot (bvand (bvnot .def_172) (bvnot .def_180)))))))) (_ bv1 1))) (= (bvand (bvand (bvnot (bvand state41 state133)) (bvnot (bvand input11 .def_90))) (bvnot (bvand (bvnot (bvand state41 state141)) (bvnot (bvand input10 .def_90))))) (_ bv1 1))) (= input24 (_ bv0 1))) (= witness_0 (_ bv1 1))) (= state279 (_ bv0 1))) (= state284 (_ bv0 1))) (= state294 (_ bv0 1))) (= state317 (_ bv0 1))) (= state340 (_ bv0 1))) (= state363 (_ bv0 1))) (= state386 (_ bv0 1))) (= state401 (_ bv0 1))) (= state416 (_ bv0 1))) (= state432 (_ bv0 1)))))))))))))
(define-fun Trans
    ((state432 Bool) (state416 Bool) (state363 Bool) (state340 Bool) (state284 Bool) (state279 Bool) (witness_0 Bool) (state386 Bool) (state187 Bool) (state156 Bool) (state294 Bool) (state37 Bool) (state41 Bool) (state202 Bool) (state49 Bool) (state64 Bool) (state39 Bool) (state86 Bool) (state401 Bool) (state72 Bool) (state171 Bool) (state94 Bool) (state317 Bool) (state154 Bool) (state141 Bool) (state115 Bool) (state107 Bool) (state133 Bool) (input35 Bool) (input34 Bool) (input33 Bool) (input32 Bool) (input31 Bool) (input14 Bool) (input13 Bool) (input12 Bool) (input11 Bool) (input10 Bool) (input9 Bool) (input8 Bool) (input7 Bool) (input6 Bool) (input5 Bool) (input4 Bool) (input3 Bool) (input2 Bool) (input15 Bool) (input16 Bool) (input17 Bool) (input18 Bool) (input19 Bool) (input20 Bool) (input21 Bool) (input22 Bool) (input23 Bool) (input24 Bool) (input25 Bool) (input26 Bool) (input27 Bool) (input28 Bool) (input29 Bool) (input30 Bool) (state432.next Bool) (state416.next Bool) (state363.next Bool) (state340.next Bool) (state284.next Bool) (state279.next Bool) (witness_0.next Bool) (state386.next Bool) (state187.next Bool) (state156.next Bool) (state294.next Bool) (state37.next Bool) (state41.next Bool) (state202.next Bool) (state49.next Bool) (state64.next Bool) (state39.next Bool) (state86.next Bool) (state401.next Bool) (state72.next Bool) (state171.next Bool) (state94.next Bool) (state317.next Bool) (state154.next Bool) (state141.next Bool) (state115.next Bool) (state107.next Bool) (state133.next Bool) (input35.next Bool) (input34.next Bool) (input33.next Bool) (input32.next Bool) (input31.next Bool) (input14.next Bool) (input13.next Bool) (input12.next Bool) (input11.next Bool) (input10.next Bool) (input9.next Bool) (input8.next Bool) (input7.next Bool) (input6.next Bool) (input5.next Bool) (input4.next Bool) (input3.next Bool) (input2.next Bool) (input15.next Bool) (input16.next Bool) (input17.next Bool) (input18.next Bool) (input19.next Bool) (input20.next Bool) (input21.next Bool) (input22.next Bool) (input23.next Bool) (input24.next Bool) (input25.next Bool) (input26.next Bool) (input27.next Bool) (input28.next Bool) (input29.next Bool) (input30.next Bool))
    Bool
     (let ((.def_90 (bvnot state41))) (let ((.def_93 (bvand (bvnot (bvand state39 state41)) (bvnot (bvand input12 .def_90))))) (let ((.def_103 (bvand (bvnot (bvand state41 state49)) (bvnot (bvand input6 .def_90))))) (let ((.def_104 (bvnot .def_103))) (let ((.def_107 (bvnot .def_93))) (let ((.def_121 (bvand (bvnot (bvand state41 state64)) (bvnot (bvand input13 .def_90))))) (let ((.def_129 (bvor (bvand state41 state72) (bvand input7 .def_90)))) (let ((.def_132 (bvnot .def_121))) (let ((.def_147 (bvand (bvnot (bvand state41 state86)) (bvnot (bvand input14 .def_90))))) (let ((.def_155 (bvor (bvand state41 state94) (bvand input8 .def_90)))) (let ((.def_158 (bvnot .def_147))) (let ((.def_172 (bvand (bvnot (bvand state41 state107)) (bvnot (bvand input15 .def_90))))) (let ((.def_180 (bvor (bvand state41 state115) (bvand input9 .def_90)))) (let ((.def_183 (bvnot .def_172))) (let ((.def_201 (bvand (bvnot (bvand state41 state133)) (bvnot (bvand input11 .def_90))))) (let ((.def_211 (bvand (bvnot (bvand state41 state141)) (bvnot (bvand input10 .def_90))))) (let ((.def_212 (bvnot .def_211))) (let ((.def_228 (bvand (bvnot (bvand state41 state156)) (bvnot (bvand input2 .def_90))))) (let ((.def_244 (bvand (bvnot (bvand state41 state171)) (bvnot (bvand input3 .def_90))))) (let ((.def_261 (bvand (bvnot (bvand state41 state187)) (bvnot (bvand input4 .def_90))))) (let ((.def_277 (bvand (bvnot (bvand state41 state202)) (bvnot (bvand input5 .def_90))))) (let ((.def_293 (bvnot state41.next))) (let ((.def_297 (bvor (bvand input9.next .def_293) (bvand state41.next state115.next)))) (let ((.def_304 (bvand (bvnot (bvand input15.next .def_293)) (bvnot (bvand state41.next state107.next))))) (let ((.def_317 (bvor (bvand input8.next .def_293) (bvand state41.next state94.next)))) (let ((.def_324 (bvand (bvnot (bvand input14.next .def_293)) (bvnot (bvand state41.next state86.next))))) (let ((.def_339 (bvor (bvand input7.next .def_293) (bvand state41.next state72.next)))) (let ((.def_346 (bvand (bvnot (bvand input13.next .def_293)) (bvnot (bvand state41.next state64.next))))) (let ((.def_361 (bvand (bvnot (bvand input12.next .def_293)) (bvnot (bvand state39.next state41.next))))) (let ((.def_368 (bvand (bvnot (bvand input6.next .def_293)) (bvnot (bvand state41.next state49.next))))) (let ((.def_432 (bvnot input33))) (let ((.def_456 (bvnot .def_201))) (let ((.def_493 (bvnot (bvand (bvnot (bvand state41 state294)) (bvnot (bvand input16 .def_90)))))) (let ((.def_515 (bvnot (bvand (bvnot (bvand state41 state317)) (bvnot (bvand input17 .def_90)))))) (let ((.def_537 (bvnot (bvand (bvnot (bvand state41 state340)) (bvnot (bvand input18 .def_90)))))) (let ((.def_559 (bvnot (bvand (bvnot (bvand state41 state363)) (bvnot (bvand input19 .def_90)))))) (let ((.def_581 (bvnot (bvand (bvnot (bvand state41 state386)) (bvnot (bvand input21 .def_90)))))) (let ((.def_596 (bvnot (bvand (bvnot (bvand state41 state401)) (bvnot (bvand input22 .def_90)))))) (let ((.def_611 (bvnot (bvand (bvnot (bvand state41 state416)) (bvnot (bvand input23 .def_90)))))) (and (and (and (and (and (and (and (and (and (and (and (and (and (and (and (and (and (and (and (and (and (and (and (and (and (and (and (and (and (and (and (and (and (= (bvand state37 (bvnot (bvand (bvand (bvand (bvnot (bvand .def_93 .def_104)) (bvnot (bvand .def_103 .def_107))) (bvand (bvnot (bvand .def_121 .def_129)) (bvnot (bvand .def_132 (bvnot .def_129))))) (bvand (bvand (bvnot (bvand .def_147 .def_155)) (bvnot (bvand .def_158 (bvnot .def_155)))) (bvand (bvnot (bvand .def_172 .def_180)) (bvnot (bvand .def_183 (bvnot .def_180)))))))) (_ bv1 1)) (= (bvand state37.next (bvnot (bvand (bvand (bvand (bvnot (bvand (bvnot .def_297) (bvnot .def_304))) (bvnot (bvand .def_297 .def_304))) (bvand (bvnot (bvand (bvnot .def_317) (bvnot .def_324))) (bvnot (bvand .def_317 .def_324)))) (bvand (bvand (bvnot (bvand (bvnot .def_339) (bvnot .def_346))) (bvnot (bvand .def_339 .def_346))) (bvand (bvnot (bvand (bvnot .def_361) .def_368)) (bvnot (bvand .def_361 (bvnot .def_368)))))))) (_ bv1 1))) (= (bvand .def_201 .def_212) (_ bv1 1))) (= (bvand (bvnot (bvand (bvnot (bvand input10.next .def_293)) (bvnot (bvand state41.next state141.next)))) (bvand (bvnot (bvand input11.next .def_293)) (bvnot (bvand state41.next state133.next)))) (_ bv1 1))) (= input24 (_ bv0 1))) (= input24.next (_ bv0 1))) (= witness_0.next (bvnot (ite (= (bvand state154 (bvnot (bvand (bvand (bvand (bvnot (bvand .def_93 (bvnot .def_228))) (bvnot (bvand .def_107 .def_228))) (bvand (bvnot (bvand .def_121 (bvnot .def_244))) (bvnot (bvand .def_132 .def_244)))) (bvand (bvand (bvnot (bvand .def_147 (bvnot .def_261))) (bvnot (bvand .def_158 .def_261))) (bvand (bvnot (bvand .def_172 (bvnot .def_277))) (bvnot (bvand .def_183 .def_277))))))) (_ bv1 1)) (_ bv1 1) (_ bv0 1))))) (= state37.next (bvand .def_432 state279))) (= state39.next (bvor (bvand input33 .def_107) (bvand .def_432 (bvnot (bvand (bvnot (bvand .def_212 .def_493)) (bvnot (bvand .def_107 .def_211)))))))) (= state41.next (_ bv1 1))) (= state49.next (bvor (bvand input25 input33) (bvand .def_104 .def_432)))) (= state64.next (bvor (bvand input33 .def_132) (bvand .def_432 (bvnot (bvand (bvnot (bvand .def_212 .def_515)) (bvnot (bvand .def_132 .def_211)))))))) (= state72.next (bvor (bvand input26 input33) (bvand .def_129 .def_432)))) (= state86.next (bvor (bvand input33 .def_158) (bvand .def_432 (bvnot (bvand (bvnot (bvand .def_212 .def_537)) (bvnot (bvand .def_158 .def_211)))))))) (= state94.next (bvor (bvand input27 input33) (bvand .def_155 .def_432)))) (= state107.next (bvor (bvand input33 .def_183) (bvand .def_432 (bvnot (bvand (bvnot (bvand .def_212 .def_559)) (bvnot (bvand .def_183 .def_211)))))))) (= state115.next (bvor (bvand input28 input33) (bvand .def_180 .def_432)))) (= state133.next (bvor (bvand input33 .def_456) (bvand input24 .def_432)))) (= state141.next (bvor (bvand input33 .def_212) (bvand .def_432 .def_456)))) (= state154.next (bvand state37 .def_432))) (= .def_129 state156.next)) (= .def_155 state171.next)) (= .def_180 state187.next)) (= state202.next (_ bv1 1))) (= state279.next (bvand .def_432 (bvnot state284)))) (= .def_432 state284.next)) (= state294.next (bvor (bvand input33 .def_493) (bvand .def_432 .def_581)))) (= state317.next (bvor (bvand input33 .def_515) (bvand .def_432 .def_596)))) (= state340.next (bvor (bvand input33 .def_537) (bvand .def_432 .def_611)))) (= state363.next (bvor .def_432 .def_559))) (= state386.next (bvor (bvand input33 .def_581) (bvand .def_432 (bvnot (bvand (bvnot (bvand .def_456 .def_596)) (bvnot (bvand .def_132 .def_201)))))))) (= state401.next (bvor (bvand input33 .def_596) (bvand .def_432 (bvnot (bvand (bvnot (bvand .def_456 .def_611)) (bvnot (bvand .def_158 .def_201)))))))) (= state416.next (bvor (bvand input33 .def_611) (bvand .def_432 (bvnot (bvand .def_172 .def_201)))))) (= state432.next (bvor (bvand input33 (bvnot (bvand (bvnot (bvand state41 state432)) (bvnot (bvand input20 .def_90))))) (bvand .def_432 (bvnot (bvand (bvnot (bvand .def_456 .def_581)) (bvnot (bvand .def_107 .def_201))))))))))))))))))))))))))))))))))))))))))))))))
(define-fun P
   ((state432 Bool) (state416 Bool) (state363 Bool) (state340 Bool) (state284 Bool) (state279 Bool) (witness_0 Bool) (state386 Bool) (state187 Bool) (state156 Bool) (state294 Bool) (state37 Bool) (state41 Bool) (state202 Bool) (state49 Bool) (state64 Bool) (state39 Bool) (state86 Bool) (state401 Bool) (state72 Bool) (state171 Bool) (state94 Bool) (state317 Bool) (state154 Bool) (state141 Bool) (state115 Bool) (state107 Bool) (state133 Bool) (input35 Bool) (input34 Bool) (input33 Bool) (input32 Bool) (input31 Bool) (input14 Bool) (input13 Bool) (input12 Bool) (input11 Bool) (input10 Bool) (input9 Bool) (input8 Bool) (input7 Bool) (input6 Bool) (input5 Bool) (input4 Bool) (input3 Bool) (input2 Bool) (input15 Bool) (input16 Bool) (input17 Bool) (input18 Bool) (input19 Bool) (input20 Bool) (input21 Bool) (input22 Bool) (input23 Bool) (input24 Bool) (input25 Bool) (input26 Bool) (input27 Bool) (input28 Bool) (input29 Bool) (input30 Bool))
    Bool
     (= witness_0 (_ bv1 1)))

(declare-var state432 Bool)
(declare-var state416 Bool)
(declare-var state363 Bool)
(declare-var state340 Bool)
(declare-var state284 Bool)
(declare-var state279 Bool)
(declare-var witness_0 Bool)
(declare-var state386 Bool)
(declare-var state187 Bool)
(declare-var state156 Bool)
(declare-var state294 Bool)
(declare-var state37 Bool)
(declare-var state41 Bool)
(declare-var state202 Bool)
(declare-var state49 Bool)
(declare-var state64 Bool)
(declare-var state39 Bool)
(declare-var state86 Bool)
(declare-var state401 Bool)
(declare-var state72 Bool)
(declare-var state171 Bool)
(declare-var state94 Bool)
(declare-var state317 Bool)
(declare-var state154 Bool)
(declare-var state141 Bool)
(declare-var state115 Bool)
(declare-var state107 Bool)
(declare-var state133 Bool)

(declare-var state432.next Bool)
(declare-var state416.next Bool)
(declare-var state363.next Bool)
(declare-var state340.next Bool)
(declare-var state284.next Bool)
(declare-var state279.next Bool)
(declare-var witness_0.next Bool)
(declare-var state386.next Bool)
(declare-var state187.next Bool)
(declare-var state156.next Bool)
(declare-var state294.next Bool)
(declare-var state37.next Bool)
(declare-var state41.next Bool)
(declare-var state202.next Bool)
(declare-var state49.next Bool)
(declare-var state64.next Bool)
(declare-var state39.next Bool)
(declare-var state86.next Bool)
(declare-var state401.next Bool)
(declare-var state72.next Bool)
(declare-var state171.next Bool)
(declare-var state94.next Bool)
(declare-var state317.next Bool)
(declare-var state154.next Bool)
(declare-var state141.next Bool)
(declare-var state115.next Bool)
(declare-var state107.next Bool)
(declare-var state133.next Bool)

(declare-var input35 Bool)
(declare-var input34 Bool)
(declare-var input33 Bool)
(declare-var input32 Bool)
(declare-var input31 Bool)
(declare-var input14 Bool)
(declare-var input13 Bool)
(declare-var input12 Bool)
(declare-var input11 Bool)
(declare-var input10 Bool)
(declare-var input9 Bool)
(declare-var input8 Bool)
(declare-var input7 Bool)
(declare-var input6 Bool)
(declare-var input5 Bool)
(declare-var input4 Bool)
(declare-var input3 Bool)
(declare-var input2 Bool)
(declare-var input15 Bool)
(declare-var input16 Bool)
(declare-var input17 Bool)
(declare-var input18 Bool)
(declare-var input19 Bool)
(declare-var input20 Bool)
(declare-var input21 Bool)
(declare-var input22 Bool)
(declare-var input23 Bool)
(declare-var input24 Bool)
(declare-var input25 Bool)
(declare-var input26 Bool)
(declare-var input27 Bool)
(declare-var input28 Bool)
(declare-var input29 Bool)
(declare-var input30 Bool)
(declare-var input35.next Bool)
(declare-var input34.next Bool)
(declare-var input33.next Bool)
(declare-var input32.next Bool)
(declare-var input31.next Bool)
(declare-var input14.next Bool)
(declare-var input13.next Bool)
(declare-var input12.next Bool)
(declare-var input11.next Bool)
(declare-var input10.next Bool)
(declare-var input9.next Bool)
(declare-var input8.next Bool)
(declare-var input7.next Bool)
(declare-var input6.next Bool)
(declare-var input5.next Bool)
(declare-var input4.next Bool)
(declare-var input3.next Bool)
(declare-var input2.next Bool)
(declare-var input15.next Bool)
(declare-var input16.next Bool)
(declare-var input17.next Bool)
(declare-var input18.next Bool)
(declare-var input19.next Bool)
(declare-var input20.next Bool)
(declare-var input21.next Bool)
(declare-var input22.next Bool)
(declare-var input23.next Bool)
(declare-var input24.next Bool)
(declare-var input25.next Bool)
(declare-var input26.next Bool)
(declare-var input27.next Bool)
(declare-var input28.next Bool)
(declare-var input29.next Bool)
(declare-var input30.next Bool)


(declare-rel Invariant (Bool Bool Bool Bool Bool Bool Bool Bool Bool Bool Bool Bool Bool Bool Bool Bool Bool Bool Bool Bool Bool Bool Bool Bool Bool Bool Bool Bool Bool Bool Bool Bool Bool Bool Bool Bool Bool Bool Bool Bool Bool Bool Bool Bool Bool Bool Bool Bool Bool Bool Bool Bool Bool Bool Bool Bool Bool Bool Bool Bool Bool Bool))
(declare-rel Goal ())

(rule (=>
  (Init state432 state416 state363 state340 state284 state279 witness_0 state386 state187 state156 state294 state37 state41 state202 state49 state64 state39 state86 state401 state72 state171 state94 state317 state154 state141 state115 state107 state133 input35 input34 input33 input32 input31 input14 input13 input12 input11 input10 input9 input8 input7 input6 input5 input4 input3 input2 input15 input16 input17 input18 input19 input20 input21 input22 input23 input24 input25 input26 input27 input28 input29 input30)
  (Invariant  state432 state416 state363 state340 state284 state279 witness_0 state386 state187 state156 state294 state37 state41 state202 state49 state64 state39 state86 state401 state72 state171 state94 state317 state154 state141 state115 state107 state133 input35 input34 input33 input32 input31 input14 input13 input12 input11 input10 input9 input8 input7 input6 input5 input4 input3 input2 input15 input16 input17 input18 input19 input20 input21 input22 input23 input24 input25 input26 input27 input28 input29 input30)))

(rule (=> (and
  (Invariant  state432 state416 state363 state340 state284 state279 witness_0 state386 state187 state156 state294 state37 state41 state202 state49 state64 state39 state86 state401 state72 state171 state94 state317 state154 state141 state115 state107 state133 input35 input34 input33 input32 input31 input14 input13 input12 input11 input10 input9 input8 input7 input6 input5 input4 input3 input2 input15 input16 input17 input18 input19 input20 input21 input22 input23 input24 input25 input26 input27 input28 input29 input30)
  (Trans state432 state416 state363 state340 state284 state279 witness_0 state386 state187 state156 state294 state37 state41 state202 state49 state64 state39 state86 state401 state72 state171 state94 state317 state154 state141 state115 state107 state133 input35 input34 input33 input32 input31 input14 input13 input12 input11 input10 input9 input8 input7 input6 input5 input4 input3 input2 input15 input16 input17 input18 input19 input20 input21 input22 input23 input24 input25 input26 input27 input28 input29 input30 state432.next state416.next state363.next state340.next state284.next state279.next witness_0.next state386.next state187.next state156.next state294.next state37.next state41.next state202.next state49.next state64.next state39.next state86.next state401.next state72.next state171.next state94.next state317.next state154.next state141.next state115.next state107.next state133.next input35.next input34.next input33.next input32.next input31.next input14.next input13.next input12.next input11.next input10.next input9.next input8.next input7.next input6.next input5.next input4.next input3.next input2.next input15.next input16.next input17.next input18.next input19.next input20.next input21.next input22.next input23.next input24.next input25.next input26.next input27.next input28.next input29.next input30.next))
  (Invariant  state432.next state416.next state363.next state340.next state284.next state279.next witness_0.next state386.next state187.next state156.next state294.next state37.next state41.next state202.next state49.next state64.next state39.next state86.next state401.next state72.next state171.next state94.next state317.next state154.next state141.next state115.next state107.next state133.next input35.next input34.next input33.next input32.next input31.next input14.next input13.next input12.next input11.next input10.next input9.next input8.next input7.next input6.next input5.next input4.next input3.next input2.next input15.next input16.next input17.next input18.next input19.next input20.next input21.next input22.next input23.next input24.next input25.next input26.next input27.next input28.next input29.next input30.next)))

(rule (=> (and
  (Invariant state432 state416 state363 state340 state284 state279 witness_0 state386 state187 state156 state294 state37 state41 state202 state49 state64 state39 state86 state401 state72 state171 state94 state317 state154 state141 state115 state107 state133 input35 input34 input33 input32 input31 input14 input13 input12 input11 input10 input9 input8 input7 input6 input5 input4 input3 input2 input15 input16 input17 input18 input19 input20 input21 input22 input23 input24 input25 input26 input27 input28 input29 input30)
  (not (P state432 state416 state363 state340 state284 state279 witness_0 state386 state187 state156 state294 state37 state41 state202 state49 state64 state39 state86 state401 state72 state171 state94 state317 state154 state141 state115 state107 state133 input35 input34 input33 input32 input31 input14 input13 input12 input11 input10 input9 input8 input7 input6 input5 input4 input3 input2 input15 input16 input17 input18 input19 input20 input21 input22 input23 input24 input25 input26 input27 input28 input29 input30)))
  Goal))

(query Goal :print-certificate true)

